%%%%%%%%%% Sudoku parameters %%%%%%%%%%
size = 9;

clue = [| 0, 0, 0,   0, 0, 0,   0, 0, 0
        | 0, 0, 0,   0, 0, 0,   0, 0, 0
        | 0, 0, 0,   0, 0, 0,   0, 0, 0

        | 0, 0, 0,   0, 0, 0,   0, 0, 0
        | 0, 0, 0,   0, 0, 0,   0, 0, 0
        | 0, 0, 0,   0, 0, 0,   0, 0, 0

        | 0, 0, 0,   0, 0, 0,   0, 0, 0
        | 0, 0, 0,   0, 0, 0,   0, 0, 0
        | 0, 0, 0,   0, 0, 0,   0, 0, 0
        |];

%%%%%%%%%% Killer parameters %%%%%%%%%%

cage_count = 15;
cage_max_length = 9;

cage_totals = [11, 11, 11, 11, 11, 11, 11, 11, 11, 11, 11, 11, 11, <>, <>];

cage_cells = [| (r: 1, c: 1), (r: 1, c: 2), (r:<>, c:<>), (r:<>, c:<>), (r:<>, c:<>), (r:<>, c:<>), (r:<>, c:<>), (r:<>, c:<>), (r:<>, c:<>)
              | (r: 1, c: 4), (r: 2, c: 4), (r:<>, c:<>), (r:<>, c:<>), (r:<>, c:<>), (r:<>, c:<>), (r:<>, c:<>), (r:<>, c:<>), (r:<>, c:<>)
              | (r: 1, c: 5), (r: 2, c: 5), (r:<>, c:<>), (r:<>, c:<>), (r:<>, c:<>), (r:<>, c:<>), (r:<>, c:<>), (r:<>, c:<>), (r:<>, c:<>)
              | (r: 1, c: 6), (r: 2, c: 6), (r:<>, c:<>), (r:<>, c:<>), (r:<>, c:<>), (r:<>, c:<>), (r:<>, c:<>), (r:<>, c:<>), (r:<>, c:<>)
              | (r: 3, c: 4), (r: 3, c: 5), (r:<>, c:<>), (r:<>, c:<>), (r:<>, c:<>), (r:<>, c:<>), (r:<>, c:<>), (r:<>, c:<>), (r:<>, c:<>)
              | (r: 3, c: 8), (r: 3, c: 9), (r:<>, c:<>), (r:<>, c:<>), (r:<>, c:<>), (r:<>, c:<>), (r:<>, c:<>), (r:<>, c:<>), (r:<>, c:<>)
              | (r: 4, c: 1), (r: 4, c: 2), (r: 5, c: 2), (r:<>, c:<>), (r:<>, c:<>), (r:<>, c:<>), (r:<>, c:<>), (r:<>, c:<>), (r:<>, c:<>)
              | (r: 5, c: 6), (r: 6, c: 4), (r: 6, c: 5), (r: 6, c: 6), (r:<>, c:<>), (r:<>, c:<>), (r:<>, c:<>), (r:<>, c:<>), (r:<>, c:<>)
              | (r: 7, c: 1), (r: 8, c: 1), (r:<>, c:<>), (r:<>, c:<>), (r:<>, c:<>), (r:<>, c:<>), (r:<>, c:<>), (r:<>, c:<>), (r:<>, c:<>)
              | (r: 8, c: 4), (r: 9, c: 4), (r:<>, c:<>), (r:<>, c:<>), (r:<>, c:<>), (r:<>, c:<>), (r:<>, c:<>), (r:<>, c:<>), (r:<>, c:<>)
              | (r: 8, c: 6), (r: 9, c: 6), (r:<>, c:<>), (r:<>, c:<>), (r:<>, c:<>), (r:<>, c:<>), (r:<>, c:<>), (r:<>, c:<>), (r:<>, c:<>)
              | (r: 8, c: 7), (r: 8, c: 8), (r: 9, c: 7), (r:<>, c:<>), (r:<>, c:<>), (r:<>, c:<>), (r:<>, c:<>), (r:<>, c:<>), (r:<>, c:<>)
              | (r: 9, c: 2), (r: 9, c: 3), (r:<>, c:<>), (r:<>, c:<>), (r:<>, c:<>), (r:<>, c:<>), (r:<>, c:<>), (r:<>, c:<>), (r:<>, c:<>)
              | (r: 2, c: 3), (r: 3, c: 2), (r: 3, c: 3), (r: 4, c: 3), (r: 5, c: 3), (r: 6, c: 3), (r: 7, c: 2), (r: 7, c: 3), (r: 7, c: 4)
              | (r: 2, c: 7), (r: 3, c: 6), (r: 3, c: 7), (r: 4, c: 7), (r: 5, c: 7), (r: 6, c: 7), (r: 7, c: 6), (r: 7, c: 7), (r: 7, c: 8)
              |];

%%%%%%%%%% Thermometer parameters %%%%%%%%%%

thermo_count = 0;
thermo_max_length = 0;

thermo_cells = [];

%%%%%%%% German Whispers parameters %%%%%%%%%

GW_count = 3;
GW_max_length = 6;

GW_cells = [| 
      (r: 2, c: 3), (r: 3, c: 3), (r: 4, c: 3), (r: 5, c: 3), (r: 6, c: 3), (r:<>, c:<>)
    | (r: 2, c: 7), (r: 3, c: 7), (r: 4, c: 7), (r: 5, c: 7), (r: 6, c: 7), (r: 7, c: 7)
    | (r: 6, c: 9), (r: 7, c: 9), (r:<>, c:<>), (r:<>, c:<>), (r:<>, c:<>), (r:<>, c:<>)
    |];

%%%%%%%% Partial Kropki parameters %%%%%%%%%

krp_count_white = 0;
krp_cells_white = [];

krp_count_black = 0;
krp_cells_black = [];

%%%%%%%% Full Kropki constraints %%%%%%%%%

full_kropki = false;
